proyfinal/src/viki/013/experimentInOfficeAgust.take6.output/4b462073-9640-4284-a0af-e4c97421de1f.als.dat
{'cnf.clauses': '118081',
 'cnf.totvars': '69608',
 'conflict literals': '99',
 'conflicts': '31',
 'decisions': '4717',
 'memused.mb': '14.79',
 'outcome': 'UNSAT',
 'propagations': '23265',
 'restarts': '1',
 'solver.msecs': 27,
 'task.msecs': 82}
