proyfinal/src/viki/013/experimentInOfficeAgust.take6.output/4b462073-9640-4284-a0af-e4c97421de1f.als.out
Reading from standard input... Use '--help' for help.
============================[ Problem Statistics ]=============================
|                                                                             |
|  Number of variables:         69608                                         |
|  Number of clauses:          118081                                         |
|  Parse time:                   0.02 s                                       |
|                                                                             |
============================[ Search Statistics ]==============================
| Conflicts |          ORIGINAL         |          LEARNT          | Progress |
|           |    Vars  Clauses Literals |    Limit  Clauses Lit/Cl |          |
===============================================================================
===============================================================================
restarts              : 1
conflicts             : 31             (1114 /sec)
decisions             : 4717           (0.00 % random) (169439 /sec)
propagations          : 23265          (835698 /sec)
conflict literals     : 99             (0.00 % deleted)
Memory used           : 14.79 MB
CPU time              : 0.027839 s

UNSATISFIABLE
